n= 1
m= 50
1000
659	6	6
434	16	8
409	18	9
294	16	8
663	20	5
527	5	5
759	9	9
601	9	9
324	24	8
540	28	7
275	27	9
525	15	5
456	16	8
799	27	9
748	12	6
650	21	7
500	9	9
235	14	7
704	18	9
457	15	5
760	24	8
779	18	6
221	14	7
772	10	5
725	16	8
594	15	5
255	12	6
592	8	8
548	10	5
465	14	7
330	8	8
787	20	5
336	8	8
249	24	6
492	7	7
655	36	9
370	36	9
200	8	8
207	15	5
476	36	9
542	10	5
394	15	5
447	12	6
758	9	9
451	6	6
755	32	8
763	14	7
730	12	6
270	21	7
645	28	7
